10J3M/DAT/10J3MUTR-7.dat
10 3
42.1474 26.1053
4.7168 5.7647
42.7425 18.1524
39.8661 7.5973
30.2309 28.8029
40.8584 40.7183
3.2722 30.9481
7.2578 17.6209
21.5618 32.8256
18.3247 18.9737
56.8773