10J3M/SOL/10J3MUTR-7.sol
solution status: optimal solution found
objective value:                     58.8711769222226
x#1#1                                               1 	(obj:0)
x#2#1                               0.301903899469422 	(obj:0)
x#2#2                               0.698096100530578 	(obj:0)
x#3#1                               0.789171424084153 	(obj:0)
x#3#3                               0.210828575915847 	(obj:0)
x#4#2                               0.156228820050831 	(obj:0)
x#4#3                               0.843771179949169 	(obj:0)
x#5#1                                               1 	(obj:0)
x#6#1                                               1 	(obj:0)
x#7#2                                               1 	(obj:0)
x#8#2                                0.17507971662954 	(obj:0)
x#10#2                              0.384130001768076 	(obj:0)
x#10#3                              0.615869998231924 	(obj:0)
z                                    58.8711769222226 	(obj:1)
